400
[80,81,82,83,84,85,87,88,89,93,95,96,99,100,101,102,103,104,105,106,107,108,109,110,111,112,113,114,115,116,117,120,121,122,123,124,126,127,128,129,130,131,132,133,134,135,136,137,138,139,140,141,142,143,144,146,147,148,149,150,151,152,153,154,155,156,158,159,160,161,162,163,164,165,166,167,168,169,170,171,172,173,174,175,177,179,180,182,183,184,185,187,188,189,190,191,192,193,194,196,197,200,201,202,203,204,205,206,207,208,209,211,212,213,214,215,216,217,218,219,220,221,222,223,225,226,227,228,229,230,231,232,233,234,236,237,238,239,240,242,243,244,245,246,247,248,249,251,252,254,255,256,257,258,259,260,261,262,263,264,265,266,267,268,270,271,272,273,274,275,276,277,278,279]
[2,3,1,1,6,3,3,5,3,5,4,1,1,1,5,2,2,3,1,2,2,3,2,2,3,3,3,2,1,3,1,1,3,1,1,2,4,1,2,2,1,4,3,3,1,5,2,3,1,5,1,2,3,1,1,1,1,2,4,1,2,2,2,1,3,4,2,3,2,1,1,1,4,3,2,1,3,2,1,2,2,1,1,2,2,1,3,1,2,2,2,2,4,1,4,2,4,2,2,1,2,4,2,4,3,1,1,2,1,5,1,1,2,3,5,3,4,1,6,4,1,4,1,4,2,1,1,2,5,2,2,1,2,2,4,3,1,4,5,2,2,2,3,3,2,3,3,2,2,3,4,3,2,1,2,2,1,2,1,3,4,1,1,1,1,1,2,1,1,5,2,2,2,2]
